(set-info :smt-lib-version 2.6)
(set-logic QF_NIA)
(set-info :source |
Generated by: Cristina Borralleras, Daniel Larraz, Albert Oliveras, Enric Rodriguez-Carbonell, Albert Rubio
Generated on: 2017-04-27
Generator: VeryMax
Application: Termination proving
Target solver: barcelogic
|)
(set-info :license "https://creativecommons.org/licenses/by/4.0/")
(set-info :category "industrial")
(set-info :status sat)
(declare-fun Nl3x0^01 () Int)
(declare-fun Nl3x1^01 () Int)
(declare-fun Nl3x2^01 () Int)
(declare-fun Nl3x3^01 () Int)
(declare-fun Nl3x4^01 () Int)
(declare-fun Nl5x0^01 () Int)
(declare-fun Nl5x1^01 () Int)
(declare-fun Nl5x2^01 () Int)
(declare-fun Nl5x3^01 () Int)
(declare-fun Nl5x4^01 () Int)
(declare-fun Nl3x0^02 () Int)
(declare-fun Nl3x1^02 () Int)
(declare-fun Nl3x2^02 () Int)
(declare-fun Nl3x3^02 () Int)
(declare-fun Nl3x4^02 () Int)
(declare-fun Nl5x0^02 () Int)
(declare-fun Nl5x1^02 () Int)
(declare-fun Nl5x2^02 () Int)
(declare-fun Nl5x3^02 () Int)
(declare-fun Nl5x4^02 () Int)
(declare-fun Nl3x0^03 () Int)
(declare-fun Nl3x1^03 () Int)
(declare-fun Nl3x2^03 () Int)
(declare-fun Nl3x3^03 () Int)
(declare-fun Nl3x4^03 () Int)
(declare-fun Nl5x0^03 () Int)
(declare-fun Nl5x1^03 () Int)
(declare-fun Nl5x2^03 () Int)
(declare-fun Nl5x3^03 () Int)
(declare-fun Nl5x4^03 () Int)
(declare-fun lam0n10 () Int)
(declare-fun lam0n11 () Int)
(declare-fun lam0n12 () Int)
(declare-fun lam0n9 () Int)
(declare-fun Nl3CT1 () Int)
(declare-fun Nl3CT2 () Int)
(declare-fun Nl3CT3 () Int)
(declare-fun lam0n0 () Int)
(declare-fun lam0n1 () Int)
(declare-fun lam0n2 () Int)
(declare-fun lam0n3 () Int)
(declare-fun lam0n4 () Int)
(declare-fun lam0n5 () Int)
(declare-fun lam0n6 () Int)
(declare-fun lam0n7 () Int)
(declare-fun lam0n8 () Int)
(declare-fun lam1n10 () Int)
(declare-fun lam1n11 () Int)
(declare-fun lam1n12 () Int)
(declare-fun lam1n9 () Int)
(declare-fun Nl5CT1 () Int)
(declare-fun lam1n0 () Int)
(declare-fun lam1n1 () Int)
(declare-fun lam1n2 () Int)
(declare-fun lam1n3 () Int)
(declare-fun lam1n4 () Int)
(declare-fun lam1n5 () Int)
(declare-fun lam1n6 () Int)
(declare-fun lam1n7 () Int)
(declare-fun lam1n8 () Int)
(declare-fun lam2n10 () Int)
(declare-fun lam2n11 () Int)
(declare-fun lam2n12 () Int)
(declare-fun lam2n9 () Int)
(declare-fun Nl5CT2 () Int)
(declare-fun lam2n0 () Int)
(declare-fun lam2n1 () Int)
(declare-fun lam2n2 () Int)
(declare-fun lam2n3 () Int)
(declare-fun lam2n4 () Int)
(declare-fun lam2n5 () Int)
(declare-fun lam2n6 () Int)
(declare-fun lam2n7 () Int)
(declare-fun lam2n8 () Int)
(declare-fun lam3n10 () Int)
(declare-fun lam3n11 () Int)
(declare-fun lam3n12 () Int)
(declare-fun lam3n9 () Int)
(declare-fun Nl5CT3 () Int)
(declare-fun lam3n0 () Int)
(declare-fun lam3n1 () Int)
(declare-fun lam3n2 () Int)
(declare-fun lam3n3 () Int)
(declare-fun lam3n4 () Int)
(declare-fun lam3n5 () Int)
(declare-fun lam3n6 () Int)
(declare-fun lam3n7 () Int)
(declare-fun lam3n8 () Int)
(declare-fun lam4n0 () Int)
(declare-fun lam4n6 () Int)
(declare-fun lam4n7 () Int)
(declare-fun lam4n8 () Int)
(declare-fun lam4n1 () Int)
(declare-fun lam4n2 () Int)
(declare-fun lam4n3 () Int)
(declare-fun lam4n4 () Int)
(declare-fun lam4n5 () Int)
(declare-fun lam5n0 () Int)
(declare-fun lam5n6 () Int)
(declare-fun lam5n7 () Int)
(declare-fun lam5n8 () Int)
(declare-fun lam5n1 () Int)
(declare-fun lam5n2 () Int)
(declare-fun lam5n3 () Int)
(declare-fun lam5n4 () Int)
(declare-fun lam5n5 () Int)
(declare-fun lam6n0 () Int)
(declare-fun lam6n6 () Int)
(declare-fun lam6n7 () Int)
(declare-fun lam6n8 () Int)
(declare-fun lam6n1 () Int)
(declare-fun lam6n2 () Int)
(declare-fun lam6n3 () Int)
(declare-fun lam6n4 () Int)
(declare-fun lam6n5 () Int)
(declare-fun lam7n0 () Int)
(declare-fun lam7n6 () Int)
(declare-fun lam7n7 () Int)
(declare-fun lam7n8 () Int)
(declare-fun lam7n1 () Int)
(declare-fun lam7n2 () Int)
(declare-fun lam7n3 () Int)
(declare-fun lam7n4 () Int)
(declare-fun lam7n5 () Int)
(declare-fun lam14n0 () Int)
(declare-fun lam14n1 () Int)
(declare-fun lam14n2 () Int)
(declare-fun lam14n3 () Int)
(declare-fun lam14n4 () Int)
(declare-fun lam15n0 () Int)
(declare-fun lam15n1 () Int)
(declare-fun lam15n2 () Int)
(declare-fun lam15n3 () Int)
(declare-fun lam15n4 () Int)
(declare-fun lam16n0 () Int)
(declare-fun lam16n1 () Int)
(declare-fun lam16n2 () Int)
(declare-fun lam16n3 () Int)
(declare-fun lam16n4 () Int)
(declare-fun x0^0 () Int)
(declare-fun x1^0 () Int)
(declare-fun x2^0 () Int)
(declare-fun x3^0 () Int)
(declare-fun x4^0 () Int)
(declare-fun undef76 () Int)
(declare-fun undef77 () Int)
(declare-fun undef78 () Int)
(declare-fun undef79 () Int)
(declare-fun undef80 () Int)
(declare-fun lam20n10 () Int)
(declare-fun lam20n11 () Int)
(declare-fun lam20n12 () Int)
(declare-fun lam20n9 () Int)
(declare-fun RFN1_CT () Int)
(declare-fun RFN1_x0^0 () Int)
(declare-fun RFN1_x1^0 () Int)
(declare-fun RFN1_x2^0 () Int)
(declare-fun RFN1_x3^0 () Int)
(declare-fun RFN1_x4^0 () Int)
(declare-fun lam20n0 () Int)
(declare-fun lam20n1 () Int)
(declare-fun lam20n2 () Int)
(declare-fun lam20n3 () Int)
(declare-fun lam20n4 () Int)
(declare-fun lam20n5 () Int)
(declare-fun lam20n6 () Int)
(declare-fun lam20n7 () Int)
(declare-fun lam20n8 () Int)
(declare-fun lam24n0 () Int)
(declare-fun lam24n6 () Int)
(declare-fun lam24n7 () Int)
(declare-fun lam24n8 () Int)
(declare-fun lam24n1 () Int)
(declare-fun lam24n2 () Int)
(declare-fun lam24n3 () Int)
(declare-fun lam24n4 () Int)
(declare-fun lam24n5 () Int)
(declare-fun lam18n10 () Int)
(declare-fun lam18n11 () Int)
(declare-fun lam18n12 () Int)
(declare-fun lam18n9 () Int)
(declare-fun lam18n0 () Int)
(declare-fun lam18n1 () Int)
(declare-fun lam18n2 () Int)
(declare-fun lam18n3 () Int)
(declare-fun lam18n4 () Int)
(declare-fun lam18n5 () Int)
(declare-fun lam18n6 () Int)
(declare-fun lam18n7 () Int)
(declare-fun lam18n8 () Int)
(declare-fun lam19n10 () Int)
(declare-fun lam19n11 () Int)
(declare-fun lam19n12 () Int)
(declare-fun lam19n9 () Int)
(declare-fun lam19n0 () Int)
(declare-fun lam19n1 () Int)
(declare-fun lam19n2 () Int)
(declare-fun lam19n3 () Int)
(declare-fun lam19n4 () Int)
(declare-fun lam19n5 () Int)
(declare-fun lam19n6 () Int)
(declare-fun lam19n7 () Int)
(declare-fun lam19n8 () Int)
(declare-fun lam22n0 () Int)
(declare-fun lam22n6 () Int)
(declare-fun lam22n7 () Int)
(declare-fun lam22n8 () Int)
(declare-fun lam22n1 () Int)
(declare-fun lam22n2 () Int)
(declare-fun lam22n3 () Int)
(declare-fun lam22n4 () Int)
(declare-fun lam22n5 () Int)
(declare-fun lam23n0 () Int)
(declare-fun lam23n6 () Int)
(declare-fun lam23n7 () Int)
(declare-fun lam23n8 () Int)
(declare-fun lam23n1 () Int)
(declare-fun lam23n2 () Int)
(declare-fun lam23n3 () Int)
(declare-fun lam23n4 () Int)
(declare-fun lam23n5 () Int)
(declare-fun lam17n10 () Int)
(declare-fun lam17n11 () Int)
(declare-fun lam17n12 () Int)
(declare-fun lam17n9 () Int)
(declare-fun lam17n0 () Int)
(declare-fun lam17n1 () Int)
(declare-fun lam17n2 () Int)
(declare-fun lam17n3 () Int)
(declare-fun lam17n4 () Int)
(declare-fun lam17n5 () Int)
(declare-fun lam17n6 () Int)
(declare-fun lam17n7 () Int)
(declare-fun lam17n8 () Int)
(declare-fun lam21n0 () Int)
(declare-fun lam21n6 () Int)
(declare-fun lam21n7 () Int)
(declare-fun lam21n8 () Int)
(declare-fun lam21n1 () Int)
(declare-fun lam21n2 () Int)
(declare-fun lam21n3 () Int)
(declare-fun lam21n4 () Int)
(declare-fun lam21n5 () Int)
(assert ( and ( <= ( - 1 ) Nl3x0^01 ) ( <= Nl3x0^01 1 ) ( <= ( - 1 ) Nl3x1^01 ) ( <= Nl3x1^01 1 ) ( <= ( - 1 ) Nl3x2^01 ) ( <= Nl3x2^01 1 ) ( <= ( - 1 ) Nl3x3^01 ) ( <= Nl3x3^01 1 ) ( <= ( - 1 ) Nl3x4^01 ) ( <= Nl3x4^01 1 ) ( <= ( - 1 ) Nl5x0^01 ) ( <= Nl5x0^01 1 ) ( <= ( - 1 ) Nl5x1^01 ) ( <= Nl5x1^01 1 ) ( <= ( - 1 ) Nl5x2^01 ) ( <= Nl5x2^01 1 ) ( <= ( - 1 ) Nl5x3^01 ) ( <= Nl5x3^01 1 ) ( <= ( - 1 ) Nl5x4^01 ) ( <= Nl5x4^01 1 ) ( <= ( - 1 ) Nl3x0^02 ) ( <= Nl3x0^02 1 ) ( <= ( - 1 ) Nl3x1^02 ) ( <= Nl3x1^02 1 ) ( <= ( - 1 ) Nl3x2^02 ) ( <= Nl3x2^02 1 ) ( <= ( - 1 ) Nl3x3^02 ) ( <= Nl3x3^02 1 ) ( <= ( - 1 ) Nl3x4^02 ) ( <= Nl3x4^02 1 ) ( <= ( - 1 ) Nl5x0^02 ) ( <= Nl5x0^02 1 ) ( <= ( - 1 ) Nl5x1^02 ) ( <= Nl5x1^02 1 ) ( <= ( - 1 ) Nl5x2^02 ) ( <= Nl5x2^02 1 ) ( <= ( - 1 ) Nl5x3^02 ) ( <= Nl5x3^02 1 ) ( <= ( - 1 ) Nl5x4^02 ) ( <= Nl5x4^02 1 ) ( <= ( - 1 ) Nl3x0^03 ) ( <= Nl3x0^03 1 ) ( <= ( - 1 ) Nl3x1^03 ) ( <= Nl3x1^03 1 ) ( <= ( - 1 ) Nl3x2^03 ) ( <= Nl3x2^03 1 ) ( <= ( - 1 ) Nl3x3^03 ) ( <= Nl3x3^03 1 ) ( <= ( - 1 ) Nl3x4^03 ) ( <= Nl3x4^03 1 ) ( <= ( - 1 ) Nl5x0^03 ) ( <= Nl5x0^03 1 ) ( <= ( - 1 ) Nl5x1^03 ) ( <= Nl5x1^03 1 ) ( <= ( - 1 ) Nl5x2^03 ) ( <= Nl5x2^03 1 ) ( <= ( - 1 ) Nl5x3^03 ) ( <= Nl5x3^03 1 ) ( <= ( - 1 ) Nl5x4^03 ) ( <= Nl5x4^03 1 ) ))
(assert ( or ( and ( >= lam0n10 0 ) ( >= lam0n11 0 ) ( >= lam0n12 0 ) ( > ( + ( * 1 lam0n9 ) ( * Nl3CT1 lam0n10 ) ( * Nl3CT2 lam0n11 ) ( * Nl3CT3 lam0n12 ) ( - 1 ) ) 0 ) ( = ( + ( * 1 lam0n0 ) ( * Nl3x0^01 lam0n10 ) ( * Nl3x0^02 lam0n11 ) ( * Nl3x0^03 lam0n12 ) ) 0 ) ( = ( + ( * 1 lam0n1 ) ( * Nl3x1^01 lam0n10 ) ( * Nl3x1^02 lam0n11 ) ( * Nl3x1^03 lam0n12 ) ) 0 ) ( = ( + ( * 1 lam0n2 ) ( * Nl3x2^01 lam0n10 ) ( * Nl3x2^02 lam0n11 ) ( * Nl3x2^03 lam0n12 ) ) 0 ) ( = ( + ( * 1 lam0n3 ) ( * Nl3x3^01 lam0n10 ) ( * Nl3x3^02 lam0n11 ) ( * Nl3x3^03 lam0n12 ) ) 0 ) ( = ( + ( * 1 lam0n4 ) ( * Nl3x4^01 lam0n10 ) ( * Nl3x4^02 lam0n11 ) ( * Nl3x4^03 lam0n12 ) ) 0 ) ( = ( + ( * ( - 1 ) lam0n0 ) ( * 1 lam0n9 ) ) 0 ) ( = ( + ( * ( - 1 ) lam0n1 ) ( * 1 lam0n5 ) ) 0 ) ( = ( + ( * ( - 1 ) lam0n2 ) ( * 1 lam0n6 ) ) 0 ) ( = ( + ( * ( - 1 ) lam0n3 ) ( * 1 lam0n7 ) ) 0 ) ( = ( + ( * ( - 1 ) lam0n4 ) ( * 1 lam0n8 ) ) 0 ) ( = ( * ( - 1 ) lam0n9 ) 0 ) ( = ( * ( - 1 ) lam0n5 ) 0 ) ( = ( * ( - 1 ) lam0n6 ) 0 ) ( = ( * ( - 1 ) lam0n7 ) 0 ) ( = ( * ( - 1 ) lam0n8 ) 0 ) ) ( and ( >= lam1n10 0 ) ( >= lam1n11 0 ) ( >= lam1n12 0 ) ( > ( + ( * 1 lam1n9 ) ( * Nl3CT1 lam1n10 ) ( * Nl3CT2 lam1n11 ) ( * Nl3CT3 lam1n12 ) ( - 1 ( + ( + ( + ( + ( + Nl5CT1 ( * Nl5x0^01 0 ) ) ( * Nl5x1^01 0 ) ) ( * Nl5x2^01 0 ) ) ( * Nl5x3^01 0 ) ) ( * Nl5x4^01 0 ) ) ) ) 0 ) ( = ( + ( * 1 lam1n0 ) ( * Nl3x0^01 lam1n10 ) ( * Nl3x0^02 lam1n11 ) ( * Nl3x0^03 lam1n12 ) ) 0 ) ( = ( + ( * 1 lam1n1 ) ( * Nl3x1^01 lam1n10 ) ( * Nl3x1^02 lam1n11 ) ( * Nl3x1^03 lam1n12 ) ) 0 ) ( = ( + ( * 1 lam1n2 ) ( * Nl3x2^01 lam1n10 ) ( * Nl3x2^02 lam1n11 ) ( * Nl3x2^03 lam1n12 ) ) 0 ) ( = ( + ( * 1 lam1n3 ) ( * Nl3x3^01 lam1n10 ) ( * Nl3x3^02 lam1n11 ) ( * Nl3x3^03 lam1n12 ) ) 0 ) ( = ( + ( * 1 lam1n4 ) ( * Nl3x4^01 lam1n10 ) ( * Nl3x4^02 lam1n11 ) ( * Nl3x4^03 lam1n12 ) ) 0 ) ( = ( + ( * ( - 1 ) lam1n0 ) ( * 1 lam1n9 ) ) 0 ) ( = ( + ( * ( - 1 ) lam1n1 ) ( * 1 lam1n5 ) ) 0 ) ( = ( + ( * ( - 1 ) lam1n2 ) ( * 1 lam1n6 ) ) 0 ) ( = ( + ( * ( - 1 ) lam1n3 ) ( * 1 lam1n7 ) ) 0 ) ( = ( + ( * ( - 1 ) lam1n4 ) ( * 1 lam1n8 ) ) 0 ) ( = ( + ( * ( - 1 ) lam1n9 ) ( - ( + 0 ( * Nl5x0^01 1 ) ) ) ) 0 ) ( = ( + ( * ( - 1 ) lam1n5 ) ( - ( + 0 ( * Nl5x1^01 1 ) ) ) ) 0 ) ( = ( + ( * ( - 1 ) lam1n6 ) ( - ( + 0 ( * Nl5x2^01 1 ) ) ) ) 0 ) ( = ( + ( * ( - 1 ) lam1n7 ) ( - ( + 0 ( * Nl5x3^01 1 ) ) ) ) 0 ) ( = ( + ( * ( - 1 ) lam1n8 ) ( - ( + 0 ( * Nl5x4^01 1 ) ) ) ) 0 ) ) ))
(assert ( or ( and ( >= lam0n10 0 ) ( >= lam0n11 0 ) ( >= lam0n12 0 ) ( > ( + ( * 1 lam0n9 ) ( * Nl3CT1 lam0n10 ) ( * Nl3CT2 lam0n11 ) ( * Nl3CT3 lam0n12 ) ( - 1 ) ) 0 ) ( = ( + ( * 1 lam0n0 ) ( * Nl3x0^01 lam0n10 ) ( * Nl3x0^02 lam0n11 ) ( * Nl3x0^03 lam0n12 ) ) 0 ) ( = ( + ( * 1 lam0n1 ) ( * Nl3x1^01 lam0n10 ) ( * Nl3x1^02 lam0n11 ) ( * Nl3x1^03 lam0n12 ) ) 0 ) ( = ( + ( * 1 lam0n2 ) ( * Nl3x2^01 lam0n10 ) ( * Nl3x2^02 lam0n11 ) ( * Nl3x2^03 lam0n12 ) ) 0 ) ( = ( + ( * 1 lam0n3 ) ( * Nl3x3^01 lam0n10 ) ( * Nl3x3^02 lam0n11 ) ( * Nl3x3^03 lam0n12 ) ) 0 ) ( = ( + ( * 1 lam0n4 ) ( * Nl3x4^01 lam0n10 ) ( * Nl3x4^02 lam0n11 ) ( * Nl3x4^03 lam0n12 ) ) 0 ) ( = ( + ( * ( - 1 ) lam0n0 ) ( * 1 lam0n9 ) ) 0 ) ( = ( + ( * ( - 1 ) lam0n1 ) ( * 1 lam0n5 ) ) 0 ) ( = ( + ( * ( - 1 ) lam0n2 ) ( * 1 lam0n6 ) ) 0 ) ( = ( + ( * ( - 1 ) lam0n3 ) ( * 1 lam0n7 ) ) 0 ) ( = ( + ( * ( - 1 ) lam0n4 ) ( * 1 lam0n8 ) ) 0 ) ( = ( * ( - 1 ) lam0n9 ) 0 ) ( = ( * ( - 1 ) lam0n5 ) 0 ) ( = ( * ( - 1 ) lam0n6 ) 0 ) ( = ( * ( - 1 ) lam0n7 ) 0 ) ( = ( * ( - 1 ) lam0n8 ) 0 ) ) ( and ( >= lam2n10 0 ) ( >= lam2n11 0 ) ( >= lam2n12 0 ) ( > ( + ( * 1 lam2n9 ) ( * Nl3CT1 lam2n10 ) ( * Nl3CT2 lam2n11 ) ( * Nl3CT3 lam2n12 ) ( - 1 ( + ( + ( + ( + ( + Nl5CT2 ( * Nl5x0^02 0 ) ) ( * Nl5x1^02 0 ) ) ( * Nl5x2^02 0 ) ) ( * Nl5x3^02 0 ) ) ( * Nl5x4^02 0 ) ) ) ) 0 ) ( = ( + ( * 1 lam2n0 ) ( * Nl3x0^01 lam2n10 ) ( * Nl3x0^02 lam2n11 ) ( * Nl3x0^03 lam2n12 ) ) 0 ) ( = ( + ( * 1 lam2n1 ) ( * Nl3x1^01 lam2n10 ) ( * Nl3x1^02 lam2n11 ) ( * Nl3x1^03 lam2n12 ) ) 0 ) ( = ( + ( * 1 lam2n2 ) ( * Nl3x2^01 lam2n10 ) ( * Nl3x2^02 lam2n11 ) ( * Nl3x2^03 lam2n12 ) ) 0 ) ( = ( + ( * 1 lam2n3 ) ( * Nl3x3^01 lam2n10 ) ( * Nl3x3^02 lam2n11 ) ( * Nl3x3^03 lam2n12 ) ) 0 ) ( = ( + ( * 1 lam2n4 ) ( * Nl3x4^01 lam2n10 ) ( * Nl3x4^02 lam2n11 ) ( * Nl3x4^03 lam2n12 ) ) 0 ) ( = ( + ( * ( - 1 ) lam2n0 ) ( * 1 lam2n9 ) ) 0 ) ( = ( + ( * ( - 1 ) lam2n1 ) ( * 1 lam2n5 ) ) 0 ) ( = ( + ( * ( - 1 ) lam2n2 ) ( * 1 lam2n6 ) ) 0 ) ( = ( + ( * ( - 1 ) lam2n3 ) ( * 1 lam2n7 ) ) 0 ) ( = ( + ( * ( - 1 ) lam2n4 ) ( * 1 lam2n8 ) ) 0 ) ( = ( + ( * ( - 1 ) lam2n9 ) ( - ( + 0 ( * Nl5x0^02 1 ) ) ) ) 0 ) ( = ( + ( * ( - 1 ) lam2n5 ) ( - ( + 0 ( * Nl5x1^02 1 ) ) ) ) 0 ) ( = ( + ( * ( - 1 ) lam2n6 ) ( - ( + 0 ( * Nl5x2^02 1 ) ) ) ) 0 ) ( = ( + ( * ( - 1 ) lam2n7 ) ( - ( + 0 ( * Nl5x3^02 1 ) ) ) ) 0 ) ( = ( + ( * ( - 1 ) lam2n8 ) ( - ( + 0 ( * Nl5x4^02 1 ) ) ) ) 0 ) ) ))
(assert ( or ( and ( >= lam0n10 0 ) ( >= lam0n11 0 ) ( >= lam0n12 0 ) ( > ( + ( * 1 lam0n9 ) ( * Nl3CT1 lam0n10 ) ( * Nl3CT2 lam0n11 ) ( * Nl3CT3 lam0n12 ) ( - 1 ) ) 0 ) ( = ( + ( * 1 lam0n0 ) ( * Nl3x0^01 lam0n10 ) ( * Nl3x0^02 lam0n11 ) ( * Nl3x0^03 lam0n12 ) ) 0 ) ( = ( + ( * 1 lam0n1 ) ( * Nl3x1^01 lam0n10 ) ( * Nl3x1^02 lam0n11 ) ( * Nl3x1^03 lam0n12 ) ) 0 ) ( = ( + ( * 1 lam0n2 ) ( * Nl3x2^01 lam0n10 ) ( * Nl3x2^02 lam0n11 ) ( * Nl3x2^03 lam0n12 ) ) 0 ) ( = ( + ( * 1 lam0n3 ) ( * Nl3x3^01 lam0n10 ) ( * Nl3x3^02 lam0n11 ) ( * Nl3x3^03 lam0n12 ) ) 0 ) ( = ( + ( * 1 lam0n4 ) ( * Nl3x4^01 lam0n10 ) ( * Nl3x4^02 lam0n11 ) ( * Nl3x4^03 lam0n12 ) ) 0 ) ( = ( + ( * ( - 1 ) lam0n0 ) ( * 1 lam0n9 ) ) 0 ) ( = ( + ( * ( - 1 ) lam0n1 ) ( * 1 lam0n5 ) ) 0 ) ( = ( + ( * ( - 1 ) lam0n2 ) ( * 1 lam0n6 ) ) 0 ) ( = ( + ( * ( - 1 ) lam0n3 ) ( * 1 lam0n7 ) ) 0 ) ( = ( + ( * ( - 1 ) lam0n4 ) ( * 1 lam0n8 ) ) 0 ) ( = ( * ( - 1 ) lam0n9 ) 0 ) ( = ( * ( - 1 ) lam0n5 ) 0 ) ( = ( * ( - 1 ) lam0n6 ) 0 ) ( = ( * ( - 1 ) lam0n7 ) 0 ) ( = ( * ( - 1 ) lam0n8 ) 0 ) ) ( and ( >= lam3n10 0 ) ( >= lam3n11 0 ) ( >= lam3n12 0 ) ( > ( + ( * 1 lam3n9 ) ( * Nl3CT1 lam3n10 ) ( * Nl3CT2 lam3n11 ) ( * Nl3CT3 lam3n12 ) ( - 1 ( + ( + ( + ( + ( + Nl5CT3 ( * Nl5x0^03 0 ) ) ( * Nl5x1^03 0 ) ) ( * Nl5x2^03 0 ) ) ( * Nl5x3^03 0 ) ) ( * Nl5x4^03 0 ) ) ) ) 0 ) ( = ( + ( * 1 lam3n0 ) ( * Nl3x0^01 lam3n10 ) ( * Nl3x0^02 lam3n11 ) ( * Nl3x0^03 lam3n12 ) ) 0 ) ( = ( + ( * 1 lam3n1 ) ( * Nl3x1^01 lam3n10 ) ( * Nl3x1^02 lam3n11 ) ( * Nl3x1^03 lam3n12 ) ) 0 ) ( = ( + ( * 1 lam3n2 ) ( * Nl3x2^01 lam3n10 ) ( * Nl3x2^02 lam3n11 ) ( * Nl3x2^03 lam3n12 ) ) 0 ) ( = ( + ( * 1 lam3n3 ) ( * Nl3x3^01 lam3n10 ) ( * Nl3x3^02 lam3n11 ) ( * Nl3x3^03 lam3n12 ) ) 0 ) ( = ( + ( * 1 lam3n4 ) ( * Nl3x4^01 lam3n10 ) ( * Nl3x4^02 lam3n11 ) ( * Nl3x4^03 lam3n12 ) ) 0 ) ( = ( + ( * ( - 1 ) lam3n0 ) ( * 1 lam3n9 ) ) 0 ) ( = ( + ( * ( - 1 ) lam3n1 ) ( * 1 lam3n5 ) ) 0 ) ( = ( + ( * ( - 1 ) lam3n2 ) ( * 1 lam3n6 ) ) 0 ) ( = ( + ( * ( - 1 ) lam3n3 ) ( * 1 lam3n7 ) ) 0 ) ( = ( + ( * ( - 1 ) lam3n4 ) ( * 1 lam3n8 ) ) 0 ) ( = ( + ( * ( - 1 ) lam3n9 ) ( - ( + 0 ( * Nl5x0^03 1 ) ) ) ) 0 ) ( = ( + ( * ( - 1 ) lam3n5 ) ( - ( + 0 ( * Nl5x1^03 1 ) ) ) ) 0 ) ( = ( + ( * ( - 1 ) lam3n6 ) ( - ( + 0 ( * Nl5x2^03 1 ) ) ) ) 0 ) ( = ( + ( * ( - 1 ) lam3n7 ) ( - ( + 0 ( * Nl5x3^03 1 ) ) ) ) 0 ) ( = ( + ( * ( - 1 ) lam3n8 ) ( - ( + 0 ( * Nl5x4^03 1 ) ) ) ) 0 ) ) ))
(assert ( or ( and ( >= lam4n0 0 ) ( >= lam4n6 0 ) ( >= lam4n7 0 ) ( >= lam4n8 0 ) ( > ( + ( * Nl5CT1 lam4n6 ) ( * Nl5CT2 lam4n7 ) ( * Nl5CT3 lam4n8 ) ( - 1 ) ) 0 ) ( = ( + ( * 1 lam4n1 ) ( * Nl5x0^01 lam4n6 ) ( * Nl5x0^02 lam4n7 ) ( * Nl5x0^03 lam4n8 ) ) 0 ) ( = ( + ( * 1 lam4n2 ) ( * Nl5x1^01 lam4n6 ) ( * Nl5x1^02 lam4n7 ) ( * Nl5x1^03 lam4n8 ) ) 0 ) ( = ( + ( * 1 lam4n3 ) ( * Nl5x2^01 lam4n6 ) ( * Nl5x2^02 lam4n7 ) ( * Nl5x2^03 lam4n8 ) ) 0 ) ( = ( + ( * 1 lam4n4 ) ( * Nl5x3^01 lam4n6 ) ( * Nl5x3^02 lam4n7 ) ( * Nl5x3^03 lam4n8 ) ) 0 ) ( = ( + ( * 1 lam4n5 ) ( * Nl5x4^01 lam4n6 ) ( * Nl5x4^02 lam4n7 ) ( * Nl5x4^03 lam4n8 ) ) 0 ) ( = ( + ( * 1 lam4n0 ) ( * ( - 1 ) lam4n1 ) ) 0 ) ( = ( + ( * ( - 1 ) lam4n0 ) ( * ( - 1 ) lam4n2 ) ) 0 ) ( = ( * ( - 1 ) lam4n3 ) 0 ) ( = ( * ( - 1 ) lam4n4 ) 0 ) ( = ( * ( - 1 ) lam4n5 ) 0 ) ) ( and ( >= lam5n0 0 ) ( >= lam5n6 0 ) ( >= lam5n7 0 ) ( >= lam5n8 0 ) ( > ( + ( * Nl5CT1 lam5n6 ) ( * Nl5CT2 lam5n7 ) ( * Nl5CT3 lam5n8 ) ( - 1 ( + ( + ( + ( + ( + Nl3CT1 ( * Nl3x0^01 0 ) ) ( * Nl3x1^01 0 ) ) ( * Nl3x2^01 0 ) ) ( * Nl3x3^01 0 ) ) ( * Nl3x4^01 0 ) ) ) ) 0 ) ( = ( + ( * 1 lam5n1 ) ( * Nl5x0^01 lam5n6 ) ( * Nl5x0^02 lam5n7 ) ( * Nl5x0^03 lam5n8 ) ) 0 ) ( = ( + ( * 1 lam5n2 ) ( * Nl5x1^01 lam5n6 ) ( * Nl5x1^02 lam5n7 ) ( * Nl5x1^03 lam5n8 ) ) 0 ) ( = ( + ( * 1 lam5n3 ) ( * Nl5x2^01 lam5n6 ) ( * Nl5x2^02 lam5n7 ) ( * Nl5x2^03 lam5n8 ) ) 0 ) ( = ( + ( * 1 lam5n4 ) ( * Nl5x3^01 lam5n6 ) ( * Nl5x3^02 lam5n7 ) ( * Nl5x3^03 lam5n8 ) ) 0 ) ( = ( + ( * 1 lam5n5 ) ( * Nl5x4^01 lam5n6 ) ( * Nl5x4^02 lam5n7 ) ( * Nl5x4^03 lam5n8 ) ) 0 ) ( = ( + ( * 1 lam5n0 ) ( * ( - 1 ) lam5n1 ) ( - ( + 0 ( * Nl3x0^01 1 ) ) ) ) 0 ) ( = ( + ( * ( - 1 ) lam5n0 ) ( * ( - 1 ) lam5n2 ) ( - ( + 0 ( * Nl3x1^01 1 ) ) ) ) 0 ) ( = ( + ( * ( - 1 ) lam5n3 ) ( - ( + 0 ( * Nl3x2^01 1 ) ) ) ) 0 ) ( = ( + ( * ( - 1 ) lam5n4 ) ( - ( + 0 ( * Nl3x3^01 1 ) ) ) ) 0 ) ( = ( + ( * ( - 1 ) lam5n5 ) ( - ( + 0 ( * Nl3x4^01 1 ) ) ) ) 0 ) ) ))
(assert ( or ( and ( >= lam4n0 0 ) ( >= lam4n6 0 ) ( >= lam4n7 0 ) ( >= lam4n8 0 ) ( > ( + ( * Nl5CT1 lam4n6 ) ( * Nl5CT2 lam4n7 ) ( * Nl5CT3 lam4n8 ) ( - 1 ) ) 0 ) ( = ( + ( * 1 lam4n1 ) ( * Nl5x0^01 lam4n6 ) ( * Nl5x0^02 lam4n7 ) ( * Nl5x0^03 lam4n8 ) ) 0 ) ( = ( + ( * 1 lam4n2 ) ( * Nl5x1^01 lam4n6 ) ( * Nl5x1^02 lam4n7 ) ( * Nl5x1^03 lam4n8 ) ) 0 ) ( = ( + ( * 1 lam4n3 ) ( * Nl5x2^01 lam4n6 ) ( * Nl5x2^02 lam4n7 ) ( * Nl5x2^03 lam4n8 ) ) 0 ) ( = ( + ( * 1 lam4n4 ) ( * Nl5x3^01 lam4n6 ) ( * Nl5x3^02 lam4n7 ) ( * Nl5x3^03 lam4n8 ) ) 0 ) ( = ( + ( * 1 lam4n5 ) ( * Nl5x4^01 lam4n6 ) ( * Nl5x4^02 lam4n7 ) ( * Nl5x4^03 lam4n8 ) ) 0 ) ( = ( + ( * 1 lam4n0 ) ( * ( - 1 ) lam4n1 ) ) 0 ) ( = ( + ( * ( - 1 ) lam4n0 ) ( * ( - 1 ) lam4n2 ) ) 0 ) ( = ( * ( - 1 ) lam4n3 ) 0 ) ( = ( * ( - 1 ) lam4n4 ) 0 ) ( = ( * ( - 1 ) lam4n5 ) 0 ) ) ( and ( >= lam6n0 0 ) ( >= lam6n6 0 ) ( >= lam6n7 0 ) ( >= lam6n8 0 ) ( > ( + ( * Nl5CT1 lam6n6 ) ( * Nl5CT2 lam6n7 ) ( * Nl5CT3 lam6n8 ) ( - 1 ( + ( + ( + ( + ( + Nl3CT2 ( * Nl3x0^02 0 ) ) ( * Nl3x1^02 0 ) ) ( * Nl3x2^02 0 ) ) ( * Nl3x3^02 0 ) ) ( * Nl3x4^02 0 ) ) ) ) 0 ) ( = ( + ( * 1 lam6n1 ) ( * Nl5x0^01 lam6n6 ) ( * Nl5x0^02 lam6n7 ) ( * Nl5x0^03 lam6n8 ) ) 0 ) ( = ( + ( * 1 lam6n2 ) ( * Nl5x1^01 lam6n6 ) ( * Nl5x1^02 lam6n7 ) ( * Nl5x1^03 lam6n8 ) ) 0 ) ( = ( + ( * 1 lam6n3 ) ( * Nl5x2^01 lam6n6 ) ( * Nl5x2^02 lam6n7 ) ( * Nl5x2^03 lam6n8 ) ) 0 ) ( = ( + ( * 1 lam6n4 ) ( * Nl5x3^01 lam6n6 ) ( * Nl5x3^02 lam6n7 ) ( * Nl5x3^03 lam6n8 ) ) 0 ) ( = ( + ( * 1 lam6n5 ) ( * Nl5x4^01 lam6n6 ) ( * Nl5x4^02 lam6n7 ) ( * Nl5x4^03 lam6n8 ) ) 0 ) ( = ( + ( * 1 lam6n0 ) ( * ( - 1 ) lam6n1 ) ( - ( + 0 ( * Nl3x0^02 1 ) ) ) ) 0 ) ( = ( + ( * ( - 1 ) lam6n0 ) ( * ( - 1 ) lam6n2 ) ( - ( + 0 ( * Nl3x1^02 1 ) ) ) ) 0 ) ( = ( + ( * ( - 1 ) lam6n3 ) ( - ( + 0 ( * Nl3x2^02 1 ) ) ) ) 0 ) ( = ( + ( * ( - 1 ) lam6n4 ) ( - ( + 0 ( * Nl3x3^02 1 ) ) ) ) 0 ) ( = ( + ( * ( - 1 ) lam6n5 ) ( - ( + 0 ( * Nl3x4^02 1 ) ) ) ) 0 ) ) ))
(assert ( or ( and ( >= lam4n0 0 ) ( >= lam4n6 0 ) ( >= lam4n7 0 ) ( >= lam4n8 0 ) ( > ( + ( * Nl5CT1 lam4n6 ) ( * Nl5CT2 lam4n7 ) ( * Nl5CT3 lam4n8 ) ( - 1 ) ) 0 ) ( = ( + ( * 1 lam4n1 ) ( * Nl5x0^01 lam4n6 ) ( * Nl5x0^02 lam4n7 ) ( * Nl5x0^03 lam4n8 ) ) 0 ) ( = ( + ( * 1 lam4n2 ) ( * Nl5x1^01 lam4n6 ) ( * Nl5x1^02 lam4n7 ) ( * Nl5x1^03 lam4n8 ) ) 0 ) ( = ( + ( * 1 lam4n3 ) ( * Nl5x2^01 lam4n6 ) ( * Nl5x2^02 lam4n7 ) ( * Nl5x2^03 lam4n8 ) ) 0 ) ( = ( + ( * 1 lam4n4 ) ( * Nl5x3^01 lam4n6 ) ( * Nl5x3^02 lam4n7 ) ( * Nl5x3^03 lam4n8 ) ) 0 ) ( = ( + ( * 1 lam4n5 ) ( * Nl5x4^01 lam4n6 ) ( * Nl5x4^02 lam4n7 ) ( * Nl5x4^03 lam4n8 ) ) 0 ) ( = ( + ( * 1 lam4n0 ) ( * ( - 1 ) lam4n1 ) ) 0 ) ( = ( + ( * ( - 1 ) lam4n0 ) ( * ( - 1 ) lam4n2 ) ) 0 ) ( = ( * ( - 1 ) lam4n3 ) 0 ) ( = ( * ( - 1 ) lam4n4 ) 0 ) ( = ( * ( - 1 ) lam4n5 ) 0 ) ) ( and ( >= lam7n0 0 ) ( >= lam7n6 0 ) ( >= lam7n7 0 ) ( >= lam7n8 0 ) ( > ( + ( * Nl5CT1 lam7n6 ) ( * Nl5CT2 lam7n7 ) ( * Nl5CT3 lam7n8 ) ( - 1 ( + ( + ( + ( + ( + Nl3CT3 ( * Nl3x0^03 0 ) ) ( * Nl3x1^03 0 ) ) ( * Nl3x2^03 0 ) ) ( * Nl3x3^03 0 ) ) ( * Nl3x4^03 0 ) ) ) ) 0 ) ( = ( + ( * 1 lam7n1 ) ( * Nl5x0^01 lam7n6 ) ( * Nl5x0^02 lam7n7 ) ( * Nl5x0^03 lam7n8 ) ) 0 ) ( = ( + ( * 1 lam7n2 ) ( * Nl5x1^01 lam7n6 ) ( * Nl5x1^02 lam7n7 ) ( * Nl5x1^03 lam7n8 ) ) 0 ) ( = ( + ( * 1 lam7n3 ) ( * Nl5x2^01 lam7n6 ) ( * Nl5x2^02 lam7n7 ) ( * Nl5x2^03 lam7n8 ) ) 0 ) ( = ( + ( * 1 lam7n4 ) ( * Nl5x3^01 lam7n6 ) ( * Nl5x3^02 lam7n7 ) ( * Nl5x3^03 lam7n8 ) ) 0 ) ( = ( + ( * 1 lam7n5 ) ( * Nl5x4^01 lam7n6 ) ( * Nl5x4^02 lam7n7 ) ( * Nl5x4^03 lam7n8 ) ) 0 ) ( = ( + ( * 1 lam7n0 ) ( * ( - 1 ) lam7n1 ) ( - ( + 0 ( * Nl3x0^03 1 ) ) ) ) 0 ) ( = ( + ( * ( - 1 ) lam7n0 ) ( * ( - 1 ) lam7n2 ) ( - ( + 0 ( * Nl3x1^03 1 ) ) ) ) 0 ) ( = ( + ( * ( - 1 ) lam7n3 ) ( - ( + 0 ( * Nl3x2^03 1 ) ) ) ) 0 ) ( = ( + ( * ( - 1 ) lam7n4 ) ( - ( + 0 ( * Nl3x3^03 1 ) ) ) ) 0 ) ( = ( + ( * ( - 1 ) lam7n5 ) ( - ( + 0 ( * Nl3x4^03 1 ) ) ) ) 0 ) ) ))
(assert ( or ( and ( <= ( + Nl3CT1 ( * ( + 0 Nl3x0^01 ) x0^0 ) ( * ( + 0 Nl3x1^01 ) x1^0 ) ( * ( + 0 Nl3x2^01 ) x2^0 ) ( * ( + 0 Nl3x3^01 ) x3^0 ) ( * ( + 0 Nl3x4^01 ) x4^0 ) ) 0 ) ( <= ( + Nl3CT2 ( * ( + 0 Nl3x0^02 ) x0^0 ) ( * ( + 0 Nl3x1^02 ) x1^0 ) ( * ( + 0 Nl3x2^02 ) x2^0 ) ( * ( + 0 Nl3x3^02 ) x3^0 ) ( * ( + 0 Nl3x4^02 ) x4^0 ) ) 0 ) ( <= ( + Nl3CT3 ( * ( + 0 Nl3x0^03 ) x0^0 ) ( * ( + 0 Nl3x1^03 ) x1^0 ) ( * ( + 0 Nl3x2^03 ) x2^0 ) ( * ( + 0 Nl3x3^03 ) x3^0 ) ( * ( + 0 Nl3x4^03 ) x4^0 ) ) 0 ) ) ( and ( <= ( + Nl5CT1 ( * ( + 0 Nl5x0^01 ) x0^0 ) ( * ( + 0 Nl5x1^01 ) x1^0 ) ( * ( + 0 Nl5x2^01 ) x2^0 ) ( * ( + 0 Nl5x3^01 ) x3^0 ) ( * ( + 0 Nl5x4^01 ) x4^0 ) ) 0 ) ( <= ( + Nl5CT2 ( * ( + 0 Nl5x0^02 ) x0^0 ) ( * ( + 0 Nl5x1^02 ) x1^0 ) ( * ( + 0 Nl5x2^02 ) x2^0 ) ( * ( + 0 Nl5x3^02 ) x3^0 ) ( * ( + 0 Nl5x4^02 ) x4^0 ) ) 0 ) ( <= ( + Nl5CT3 ( * ( + 0 Nl5x0^03 ) x0^0 ) ( * ( + 0 Nl5x1^03 ) x1^0 ) ( * ( + 0 Nl5x2^03 ) x2^0 ) ( * ( + 0 Nl5x3^03 ) x3^0 ) ( * ( + 0 Nl5x4^03 ) x4^0 ) ) 0 ) ) ( and ( = ( + x0^0 ( * ( - 1 ) undef76 ) ) 0 ) ( = ( + x1^0 ( * ( - 1 ) undef77 ) ) 0 ) ( = ( + x2^0 ( * ( - 1 ) undef78 ) ) 0 ) ( = ( + x3^0 ( * ( - 1 ) undef79 ) ) 0 ) ( = ( + x4^0 ( * ( - 1 ) undef80 ) ) 0 ) ( <= ( + ( + ( + ( + ( + ( + Nl5CT1 ( * Nl5x0^01 0 ) ) ( * Nl5x1^01 0 ) ) ( * Nl5x2^01 0 ) ) ( * Nl5x3^01 0 ) ) ( * Nl5x4^01 0 ) ) ( * ( + 0 ( * Nl5x0^01 1 ) ) undef76 ) ( * ( + 0 ( * Nl5x1^01 1 ) ) undef77 ) ( * ( + 0 ( * Nl5x2^01 1 ) ) undef78 ) ( * ( + 0 ( * Nl5x3^01 1 ) ) undef79 ) ( * ( + 0 ( * Nl5x4^01 1 ) ) undef80 ) ) 0 ) ( <= ( + ( + ( + ( + ( + ( + Nl5CT2 ( * Nl5x0^02 0 ) ) ( * Nl5x1^02 0 ) ) ( * Nl5x2^02 0 ) ) ( * Nl5x3^02 0 ) ) ( * Nl5x4^02 0 ) ) ( * ( + 0 ( * Nl5x0^02 1 ) ) undef76 ) ( * ( + 0 ( * Nl5x1^02 1 ) ) undef77 ) ( * ( + 0 ( * Nl5x2^02 1 ) ) undef78 ) ( * ( + 0 ( * Nl5x3^02 1 ) ) undef79 ) ( * ( + 0 ( * Nl5x4^02 1 ) ) undef80 ) ) 0 ) ( <= ( + ( + ( + ( + ( + ( + Nl5CT3 ( * Nl5x0^03 0 ) ) ( * Nl5x1^03 0 ) ) ( * Nl5x2^03 0 ) ) ( * Nl5x3^03 0 ) ) ( * Nl5x4^03 0 ) ) ( * ( + 0 ( * Nl5x0^03 1 ) ) undef76 ) ( * ( + 0 ( * Nl5x1^03 1 ) ) undef77 ) ( * ( + 0 ( * Nl5x2^03 1 ) ) undef78 ) ( * ( + 0 ( * Nl5x3^03 1 ) ) undef79 ) ( * ( + 0 ( * Nl5x4^03 1 ) ) undef80 ) ) 0 ) ) ))
(assert ( or ( and ( and ( and ( >= lam20n10 0 ) ( >= lam20n11 0 ) ( >= lam20n12 0 ) ( > ( + ( * 1 lam20n9 ) ( * Nl3CT1 lam20n10 ) ( * Nl3CT2 lam20n11 ) ( * Nl3CT3 lam20n12 ) ( - 1 ( - ( + ( + ( + ( + ( + RFN1_CT ( * RFN1_x0^0 0 ) ) ( * RFN1_x1^0 0 ) ) ( * RFN1_x2^0 0 ) ) ( * RFN1_x3^0 0 ) ) ( * RFN1_x4^0 0 ) ) RFN1_CT ) ) ) 0 ) ( = ( + ( * 1 lam20n0 ) ( * Nl3x0^01 lam20n10 ) ( * Nl3x0^02 lam20n11 ) ( * Nl3x0^03 lam20n12 ) ( - ( - RFN1_x0^0 ) ) ) 0 ) ( = ( + ( * 1 lam20n1 ) ( * Nl3x1^01 lam20n10 ) ( * Nl3x1^02 lam20n11 ) ( * Nl3x1^03 lam20n12 ) ( - ( - RFN1_x1^0 ) ) ) 0 ) ( = ( + ( * 1 lam20n2 ) ( * Nl3x2^01 lam20n10 ) ( * Nl3x2^02 lam20n11 ) ( * Nl3x2^03 lam20n12 ) ( - ( - RFN1_x2^0 ) ) ) 0 ) ( = ( + ( * 1 lam20n3 ) ( * Nl3x3^01 lam20n10 ) ( * Nl3x3^02 lam20n11 ) ( * Nl3x3^03 lam20n12 ) ( - ( - RFN1_x3^0 ) ) ) 0 ) ( = ( + ( * 1 lam20n4 ) ( * Nl3x4^01 lam20n10 ) ( * Nl3x4^02 lam20n11 ) ( * Nl3x4^03 lam20n12 ) ( - ( - RFN1_x4^0 ) ) ) 0 ) ( = ( + ( * ( - 1 ) lam20n0 ) ( * 1 lam20n9 ) ) 0 ) ( = ( + ( * ( - 1 ) lam20n1 ) ( * 1 lam20n5 ) ) 0 ) ( = ( + ( * ( - 1 ) lam20n2 ) ( * 1 lam20n6 ) ) 0 ) ( = ( + ( * ( - 1 ) lam20n3 ) ( * 1 lam20n7 ) ) 0 ) ( = ( + ( * ( - 1 ) lam20n4 ) ( * 1 lam20n8 ) ) 0 ) ( = ( + ( * ( - 1 ) lam20n9 ) ( - ( + 0 ( * RFN1_x0^0 1 ) ) ) ) 0 ) ( = ( + ( * ( - 1 ) lam20n5 ) ( - ( + 0 ( * RFN1_x1^0 1 ) ) ) ) 0 ) ( = ( + ( * ( - 1 ) lam20n6 ) ( - ( + 0 ( * RFN1_x2^0 1 ) ) ) ) 0 ) ( = ( + ( * ( - 1 ) lam20n7 ) ( - ( + 0 ( * RFN1_x3^0 1 ) ) ) ) 0 ) ( = ( + ( * ( - 1 ) lam20n8 ) ( - ( + 0 ( * RFN1_x4^0 1 ) ) ) ) 0 ) ) ( and ( >= lam24n0 0 ) ( >= lam24n6 0 ) ( >= lam24n7 0 ) ( >= lam24n8 0 ) ( > ( + ( * Nl5CT1 lam24n6 ) ( * Nl5CT2 lam24n7 ) ( * Nl5CT3 lam24n8 ) ( - 1 ( - ( + ( + ( + ( + ( + RFN1_CT ( * RFN1_x0^0 0 ) ) ( * RFN1_x1^0 0 ) ) ( * RFN1_x2^0 0 ) ) ( * RFN1_x3^0 0 ) ) ( * RFN1_x4^0 0 ) ) RFN1_CT ) ) ) 0 ) ( = ( + ( * 1 lam24n1 ) ( * Nl5x0^01 lam24n6 ) ( * Nl5x0^02 lam24n7 ) ( * Nl5x0^03 lam24n8 ) ( - ( - RFN1_x0^0 ) ) ) 0 ) ( = ( + ( * 1 lam24n2 ) ( * Nl5x1^01 lam24n6 ) ( * Nl5x1^02 lam24n7 ) ( * Nl5x1^03 lam24n8 ) ( - ( - RFN1_x1^0 ) ) ) 0 ) ( = ( + ( * 1 lam24n3 ) ( * Nl5x2^01 lam24n6 ) ( * Nl5x2^02 lam24n7 ) ( * Nl5x2^03 lam24n8 ) ( - ( - RFN1_x2^0 ) ) ) 0 ) ( = ( + ( * 1 lam24n4 ) ( * Nl5x3^01 lam24n6 ) ( * Nl5x3^02 lam24n7 ) ( * Nl5x3^03 lam24n8 ) ( - ( - RFN1_x3^0 ) ) ) 0 ) ( = ( + ( * 1 lam24n5 ) ( * Nl5x4^01 lam24n6 ) ( * Nl5x4^02 lam24n7 ) ( * Nl5x4^03 lam24n8 ) ( - ( - RFN1_x4^0 ) ) ) 0 ) ( = ( + ( * 1 lam24n0 ) ( * ( - 1 ) lam24n1 ) ( - ( + 0 ( * RFN1_x0^0 1 ) ) ) ) 0 ) ( = ( + ( * ( - 1 ) lam24n0 ) ( * ( - 1 ) lam24n2 ) ( - ( + 0 ( * RFN1_x1^0 1 ) ) ) ) 0 ) ( = ( + ( * ( - 1 ) lam24n3 ) ( - ( + 0 ( * RFN1_x2^0 1 ) ) ) ) 0 ) ( = ( + ( * ( - 1 ) lam24n4 ) ( - ( + 0 ( * RFN1_x3^0 1 ) ) ) ) 0 ) ( = ( + ( * ( - 1 ) lam24n5 ) ( - ( + 0 ( * RFN1_x4^0 1 ) ) ) ) 0 ) ) ) ( or ( and ( and ( >= lam18n10 0 ) ( >= lam18n11 0 ) ( >= lam18n12 0 ) ( > ( + ( * 1 lam18n9 ) ( * Nl3CT1 lam18n10 ) ( * Nl3CT2 lam18n11 ) ( * Nl3CT3 lam18n12 ) ( - 1 ( - RFN1_CT ) ) ) 0 ) ( = ( + ( * 1 lam18n0 ) ( * Nl3x0^01 lam18n10 ) ( * Nl3x0^02 lam18n11 ) ( * Nl3x0^03 lam18n12 ) ( - ( - RFN1_x0^0 ) ) ) 0 ) ( = ( + ( * 1 lam18n1 ) ( * Nl3x1^01 lam18n10 ) ( * Nl3x1^02 lam18n11 ) ( * Nl3x1^03 lam18n12 ) ( - ( - RFN1_x1^0 ) ) ) 0 ) ( = ( + ( * 1 lam18n2 ) ( * Nl3x2^01 lam18n10 ) ( * Nl3x2^02 lam18n11 ) ( * Nl3x2^03 lam18n12 ) ( - ( - RFN1_x2^0 ) ) ) 0 ) ( = ( + ( * 1 lam18n3 ) ( * Nl3x3^01 lam18n10 ) ( * Nl3x3^02 lam18n11 ) ( * Nl3x3^03 lam18n12 ) ( - ( - RFN1_x3^0 ) ) ) 0 ) ( = ( + ( * 1 lam18n4 ) ( * Nl3x4^01 lam18n10 ) ( * Nl3x4^02 lam18n11 ) ( * Nl3x4^03 lam18n12 ) ( - ( - RFN1_x4^0 ) ) ) 0 ) ( = ( + ( * ( - 1 ) lam18n0 ) ( * 1 lam18n9 ) ) 0 ) ( = ( + ( * ( - 1 ) lam18n1 ) ( * 1 lam18n5 ) ) 0 ) ( = ( + ( * ( - 1 ) lam18n2 ) ( * 1 lam18n6 ) ) 0 ) ( = ( + ( * ( - 1 ) lam18n3 ) ( * 1 lam18n7 ) ) 0 ) ( = ( + ( * ( - 1 ) lam18n4 ) ( * 1 lam18n8 ) ) 0 ) ( = ( * ( - 1 ) lam18n9 ) 0 ) ( = ( * ( - 1 ) lam18n5 ) 0 ) ( = ( * ( - 1 ) lam18n6 ) 0 ) ( = ( * ( - 1 ) lam18n7 ) 0 ) ( = ( * ( - 1 ) lam18n8 ) 0 ) ) ( and ( >= lam19n10 0 ) ( >= lam19n11 0 ) ( >= lam19n12 0 ) ( > ( + ( * 1 lam19n9 ) ( * Nl3CT1 lam19n10 ) ( * Nl3CT2 lam19n11 ) ( * Nl3CT3 lam19n12 ) ( - 1 ( + ( - ( + ( + ( + ( + ( + RFN1_CT ( * RFN1_x0^0 0 ) ) ( * RFN1_x1^0 0 ) ) ( * RFN1_x2^0 0 ) ) ( * RFN1_x3^0 0 ) ) ( * RFN1_x4^0 0 ) ) RFN1_CT ) 1 ) ) ) 0 ) ( = ( + ( * 1 lam19n0 ) ( * Nl3x0^01 lam19n10 ) ( * Nl3x0^02 lam19n11 ) ( * Nl3x0^03 lam19n12 ) ( - ( - RFN1_x0^0 ) ) ) 0 ) ( = ( + ( * 1 lam19n1 ) ( * Nl3x1^01 lam19n10 ) ( * Nl3x1^02 lam19n11 ) ( * Nl3x1^03 lam19n12 ) ( - ( - RFN1_x1^0 ) ) ) 0 ) ( = ( + ( * 1 lam19n2 ) ( * Nl3x2^01 lam19n10 ) ( * Nl3x2^02 lam19n11 ) ( * Nl3x2^03 lam19n12 ) ( - ( - RFN1_x2^0 ) ) ) 0 ) ( = ( + ( * 1 lam19n3 ) ( * Nl3x3^01 lam19n10 ) ( * Nl3x3^02 lam19n11 ) ( * Nl3x3^03 lam19n12 ) ( - ( - RFN1_x3^0 ) ) ) 0 ) ( = ( + ( * 1 lam19n4 ) ( * Nl3x4^01 lam19n10 ) ( * Nl3x4^02 lam19n11 ) ( * Nl3x4^03 lam19n12 ) ( - ( - RFN1_x4^0 ) ) ) 0 ) ( = ( + ( * ( - 1 ) lam19n0 ) ( * 1 lam19n9 ) ) 0 ) ( = ( + ( * ( - 1 ) lam19n1 ) ( * 1 lam19n5 ) ) 0 ) ( = ( + ( * ( - 1 ) lam19n2 ) ( * 1 lam19n6 ) ) 0 ) ( = ( + ( * ( - 1 ) lam19n3 ) ( * 1 lam19n7 ) ) 0 ) ( = ( + ( * ( - 1 ) lam19n4 ) ( * 1 lam19n8 ) ) 0 ) ( = ( + ( * ( - 1 ) lam19n9 ) ( - ( + 0 ( * RFN1_x0^0 1 ) ) ) ) 0 ) ( = ( + ( * ( - 1 ) lam19n5 ) ( - ( + 0 ( * RFN1_x1^0 1 ) ) ) ) 0 ) ( = ( + ( * ( - 1 ) lam19n6 ) ( - ( + 0 ( * RFN1_x2^0 1 ) ) ) ) 0 ) ( = ( + ( * ( - 1 ) lam19n7 ) ( - ( + 0 ( * RFN1_x3^0 1 ) ) ) ) 0 ) ( = ( + ( * ( - 1 ) lam19n8 ) ( - ( + 0 ( * RFN1_x4^0 1 ) ) ) ) 0 ) ) ) ( and ( and ( >= lam22n0 0 ) ( >= lam22n6 0 ) ( >= lam22n7 0 ) ( >= lam22n8 0 ) ( > ( + ( * Nl5CT1 lam22n6 ) ( * Nl5CT2 lam22n7 ) ( * Nl5CT3 lam22n8 ) ( - 1 ( - RFN1_CT ) ) ) 0 ) ( = ( + ( * 1 lam22n1 ) ( * Nl5x0^01 lam22n6 ) ( * Nl5x0^02 lam22n7 ) ( * Nl5x0^03 lam22n8 ) ( - ( - RFN1_x0^0 ) ) ) 0 ) ( = ( + ( * 1 lam22n2 ) ( * Nl5x1^01 lam22n6 ) ( * Nl5x1^02 lam22n7 ) ( * Nl5x1^03 lam22n8 ) ( - ( - RFN1_x1^0 ) ) ) 0 ) ( = ( + ( * 1 lam22n3 ) ( * Nl5x2^01 lam22n6 ) ( * Nl5x2^02 lam22n7 ) ( * Nl5x2^03 lam22n8 ) ( - ( - RFN1_x2^0 ) ) ) 0 ) ( = ( + ( * 1 lam22n4 ) ( * Nl5x3^01 lam22n6 ) ( * Nl5x3^02 lam22n7 ) ( * Nl5x3^03 lam22n8 ) ( - ( - RFN1_x3^0 ) ) ) 0 ) ( = ( + ( * 1 lam22n5 ) ( * Nl5x4^01 lam22n6 ) ( * Nl5x4^02 lam22n7 ) ( * Nl5x4^03 lam22n8 ) ( - ( - RFN1_x4^0 ) ) ) 0 ) ( = ( + ( * 1 lam22n0 ) ( * ( - 1 ) lam22n1 ) ) 0 ) ( = ( + ( * ( - 1 ) lam22n0 ) ( * ( - 1 ) lam22n2 ) ) 0 ) ( = ( * ( - 1 ) lam22n3 ) 0 ) ( = ( * ( - 1 ) lam22n4 ) 0 ) ( = ( * ( - 1 ) lam22n5 ) 0 ) ) ( and ( >= lam23n0 0 ) ( >= lam23n6 0 ) ( >= lam23n7 0 ) ( >= lam23n8 0 ) ( > ( + ( * Nl5CT1 lam23n6 ) ( * Nl5CT2 lam23n7 ) ( * Nl5CT3 lam23n8 ) ( - 1 ( + ( - ( + ( + ( + ( + ( + RFN1_CT ( * RFN1_x0^0 0 ) ) ( * RFN1_x1^0 0 ) ) ( * RFN1_x2^0 0 ) ) ( * RFN1_x3^0 0 ) ) ( * RFN1_x4^0 0 ) ) RFN1_CT ) 1 ) ) ) 0 ) ( = ( + ( * 1 lam23n1 ) ( * Nl5x0^01 lam23n6 ) ( * Nl5x0^02 lam23n7 ) ( * Nl5x0^03 lam23n8 ) ( - ( - RFN1_x0^0 ) ) ) 0 ) ( = ( + ( * 1 lam23n2 ) ( * Nl5x1^01 lam23n6 ) ( * Nl5x1^02 lam23n7 ) ( * Nl5x1^03 lam23n8 ) ( - ( - RFN1_x1^0 ) ) ) 0 ) ( = ( + ( * 1 lam23n3 ) ( * Nl5x2^01 lam23n6 ) ( * Nl5x2^02 lam23n7 ) ( * Nl5x2^03 lam23n8 ) ( - ( - RFN1_x2^0 ) ) ) 0 ) ( = ( + ( * 1 lam23n4 ) ( * Nl5x3^01 lam23n6 ) ( * Nl5x3^02 lam23n7 ) ( * Nl5x3^03 lam23n8 ) ( - ( - RFN1_x3^0 ) ) ) 0 ) ( = ( + ( * 1 lam23n5 ) ( * Nl5x4^01 lam23n6 ) ( * Nl5x4^02 lam23n7 ) ( * Nl5x4^03 lam23n8 ) ( - ( - RFN1_x4^0 ) ) ) 0 ) ( = ( + ( * 1 lam23n0 ) ( * ( - 1 ) lam23n1 ) ( - ( + 0 ( * RFN1_x0^0 1 ) ) ) ) 0 ) ( = ( + ( * ( - 1 ) lam23n0 ) ( * ( - 1 ) lam23n2 ) ( - ( + 0 ( * RFN1_x1^0 1 ) ) ) ) 0 ) ( = ( + ( * ( - 1 ) lam23n3 ) ( - ( + 0 ( * RFN1_x2^0 1 ) ) ) ) 0 ) ( = ( + ( * ( - 1 ) lam23n4 ) ( - ( + 0 ( * RFN1_x3^0 1 ) ) ) ) 0 ) ( = ( + ( * ( - 1 ) lam23n5 ) ( - ( + 0 ( * RFN1_x4^0 1 ) ) ) ) 0 ) ) ) ) ) ( or ( and ( >= lam17n10 0 ) ( >= lam17n11 0 ) ( >= lam17n12 0 ) ( > ( + ( * 1 lam17n9 ) ( * Nl3CT1 lam17n10 ) ( * Nl3CT2 lam17n11 ) ( * Nl3CT3 lam17n12 ) ( - 1 ) ) 0 ) ( = ( + ( * 1 lam17n0 ) ( * Nl3x0^01 lam17n10 ) ( * Nl3x0^02 lam17n11 ) ( * Nl3x0^03 lam17n12 ) ) 0 ) ( = ( + ( * 1 lam17n1 ) ( * Nl3x1^01 lam17n10 ) ( * Nl3x1^02 lam17n11 ) ( * Nl3x1^03 lam17n12 ) ) 0 ) ( = ( + ( * 1 lam17n2 ) ( * Nl3x2^01 lam17n10 ) ( * Nl3x2^02 lam17n11 ) ( * Nl3x2^03 lam17n12 ) ) 0 ) ( = ( + ( * 1 lam17n3 ) ( * Nl3x3^01 lam17n10 ) ( * Nl3x3^02 lam17n11 ) ( * Nl3x3^03 lam17n12 ) ) 0 ) ( = ( + ( * 1 lam17n4 ) ( * Nl3x4^01 lam17n10 ) ( * Nl3x4^02 lam17n11 ) ( * Nl3x4^03 lam17n12 ) ) 0 ) ( = ( + ( * ( - 1 ) lam17n0 ) ( * 1 lam17n9 ) ) 0 ) ( = ( + ( * ( - 1 ) lam17n1 ) ( * 1 lam17n5 ) ) 0 ) ( = ( + ( * ( - 1 ) lam17n2 ) ( * 1 lam17n6 ) ) 0 ) ( = ( + ( * ( - 1 ) lam17n3 ) ( * 1 lam17n7 ) ) 0 ) ( = ( + ( * ( - 1 ) lam17n4 ) ( * 1 lam17n8 ) ) 0 ) ( = ( * ( - 1 ) lam17n9 ) 0 ) ( = ( * ( - 1 ) lam17n5 ) 0 ) ( = ( * ( - 1 ) lam17n6 ) 0 ) ( = ( * ( - 1 ) lam17n7 ) 0 ) ( = ( * ( - 1 ) lam17n8 ) 0 ) ) ( and ( >= lam21n0 0 ) ( >= lam21n6 0 ) ( >= lam21n7 0 ) ( >= lam21n8 0 ) ( > ( + ( * Nl5CT1 lam21n6 ) ( * Nl5CT2 lam21n7 ) ( * Nl5CT3 lam21n8 ) ( - 1 ) ) 0 ) ( = ( + ( * 1 lam21n1 ) ( * Nl5x0^01 lam21n6 ) ( * Nl5x0^02 lam21n7 ) ( * Nl5x0^03 lam21n8 ) ) 0 ) ( = ( + ( * 1 lam21n2 ) ( * Nl5x1^01 lam21n6 ) ( * Nl5x1^02 lam21n7 ) ( * Nl5x1^03 lam21n8 ) ) 0 ) ( = ( + ( * 1 lam21n3 ) ( * Nl5x2^01 lam21n6 ) ( * Nl5x2^02 lam21n7 ) ( * Nl5x2^03 lam21n8 ) ) 0 ) ( = ( + ( * 1 lam21n4 ) ( * Nl5x3^01 lam21n6 ) ( * Nl5x3^02 lam21n7 ) ( * Nl5x3^03 lam21n8 ) ) 0 ) ( = ( + ( * 1 lam21n5 ) ( * Nl5x4^01 lam21n6 ) ( * Nl5x4^02 lam21n7 ) ( * Nl5x4^03 lam21n8 ) ) 0 ) ( = ( + ( * 1 lam21n0 ) ( * ( - 1 ) lam21n1 ) ) 0 ) ( = ( + ( * ( - 1 ) lam21n0 ) ( * ( - 1 ) lam21n2 ) ) 0 ) ( = ( * ( - 1 ) lam21n3 ) 0 ) ( = ( * ( - 1 ) lam21n4 ) 0 ) ( = ( * ( - 1 ) lam21n5 ) 0 ) ) ) ))
(check-sat)
(exit)
